NAME          
ROWS
 N  OBJ
 L  c1
 L  c2
 L  c3
 L  c4
COLUMNS
    MARKER    'MARKER'                 'INTORG'
    x[1]      c1        119
    x[1]      c2        15
    x[1]      c3        107
    x[1]      c4        112
    x[1]      OBJ       -120
    x[2]      c1        869
    x[2]      c2        673
    x[2]      c3        3
    x[2]      c4        762
    x[2]      OBJ       -177
    x[3]      c1        517
    x[3]      c2        678
    x[3]      c3        876
    x[3]      c4        928
    x[3]      OBJ       -509
    x[4]      c1        805
    x[4]      c2        669
    x[4]      c3        876
    x[4]      c4        433
    x[4]      OBJ       -818
    x[5]      c1        143
    x[5]      c2        336
    x[5]      c3        733
    x[5]      c4        241
    x[5]      OBJ       -613
    x[6]      c1        539
    x[6]      c2        362
    x[6]      c3        169
    x[6]      c4        600
    x[6]      OBJ       -91
    x[7]      c1        250
    x[7]      c2        724
    x[7]      c3        80
    x[7]      c4        851
    x[7]      OBJ       -852
    x[8]      c1        690
    x[8]      c2        298
    x[8]      c3        185
    x[8]      c4        956
    x[8]      OBJ       -930
    x[9]      c1        584
    x[9]      c2        70
    x[9]      c3        829
    x[9]      c4        632
    x[9]      OBJ       -571
    x[10]     c1        244
    x[10]     c2        118
    x[10]     c3        834
    x[10]     c4        713
    x[10]     OBJ       -318
    x[11]     c1        625
    x[11]     c2        114
    x[11]     c3        922
    x[11]     c4        777
    x[11]     OBJ       -565
    x[12]     c1        293
    x[12]     c2        409
    x[12]     c3        778
    x[12]     c4        369
    x[12]     OBJ       -205
    x[13]     c1        841
    x[13]     c2        739
    x[13]     c3        662
    x[13]     c4        775
    x[13]     OBJ       -57
    x[14]     c1        514
    x[14]     c2        429
    x[14]     c3        206
    x[14]     c4        869
    x[14]     OBJ       -614
    x[15]     c1        683
    x[15]     c2        16
    x[15]     c3        680
    x[15]     c4        816
    x[15]     OBJ       -410
    x[16]     c1        796
    x[16]     c2        442
    x[16]     c3        474
    x[16]     c4        240
    x[16]     OBJ       -595
    x[17]     c1        727
    x[17]     c2        450
    x[17]     c3        278
    x[17]     c4        310
    x[17]     OBJ       -210
    x[18]     c1        675
    x[18]     c2        827
    x[18]     c3        825
    x[18]     c4        463
    x[18]     OBJ       -500
    x[19]     c1        801
    x[19]     c2        660
    x[19]     c3        148
    x[19]     c4        845
    x[19]     OBJ       -52
    x[20]     c1        204
    x[20]     c2        677
    x[20]     c3        580
    x[20]     c4        692
    x[20]     OBJ       -649
    x[21]     c1        311
    x[21]     c2        840
    x[21]     c3        860
    x[21]     c4        869
    x[21]     OBJ       -773
    x[22]     c1        490
    x[22]     c2        885
    x[22]     c3        706
    x[22]     c4        841
    x[22]     OBJ       -484
    x[23]     c1        672
    x[23]     c2        903
    x[23]     c3        352
    x[23]     c4        695
    x[23]     OBJ       -212
    x[24]     c1        609
    x[24]     c2        292
    x[24]     c3        457
    x[24]     c4        270
    x[24]     OBJ       -627
    x[25]     c1        388
    x[25]     c2        307
    x[25]     c3        999
    x[25]     c4        588
    x[25]     OBJ       -326
RHS
    rhs       c1        6694
    rhs       c2        5966
    rhs       c3        6810
    rhs       c4        7824
RANGES
BOUNDS
 BV bounds    x[1]
 BV bounds    x[2]
 BV bounds    x[3]
 BV bounds    x[4]
 BV bounds    x[5]
 BV bounds    x[6]
 BV bounds    x[7]
 BV bounds    x[8]
 BV bounds    x[9]
 BV bounds    x[10]
 BV bounds    x[11]
 BV bounds    x[12]
 BV bounds    x[13]
 BV bounds    x[14]
 BV bounds    x[15]
 BV bounds    x[16]
 BV bounds    x[17]
 BV bounds    x[18]
 BV bounds    x[19]
 BV bounds    x[20]
 BV bounds    x[21]
 BV bounds    x[22]
 BV bounds    x[23]
 BV bounds    x[24]
 BV bounds    x[25]
ENDATA
